# Solution for model GasLib-40
# Objective value = 72.6181748623676
loadshed[innode_1] 0
loadshed[innode_2] 0
loadshed[innode_3] 0
loadshed[innode_4] 0
loadshed[innode_5] 0
loadshed[innode_6] 0
loadshed[innode_7] 0
loadshed[innode_8] 0
loadshed[source_1] 8.0978162237200779e-03
loadshed[source_2] 1.5833684066241671e-01
loadshed[source_3] 2.9291158428146480e-01
loadshed[sink_1] 1
loadshed[sink_2] 0
loadshed[sink_3] 0
loadshed[sink_4] 0
loadshed[sink_5] 0
loadshed[sink_6] 0
loadshed[sink_7] 0
loadshed[sink_8] 0
loadshed[sink_9] 0
loadshed[sink_10] 0
loadshed[sink_11] 0
loadshed[sink_12] 1
loadshed[sink_13] 0
loadshed[sink_14] 0
loadshed[sink_15] 0
loadshed[sink_16] 0
loadshed[sink_17] 0
loadshed[sink_18] 0
loadshed[sink_19] 0
loadshed[sink_20] 0
loadshed[sink_21] 1
loadshed[sink_22] 7.4333901756502063e-01
loadshed[sink_23] 0
loadshed[sink_24] 6.9700798038866718e-01
loadshed[sink_25] 0
loadshed[sink_26] 0
loadshed[sink_27] 0
loadshed[sink_28] 0
loadshed[sink_29] 0
flow[source_1,sink_3] 1.5681009176157647e+02
flow[innode_1,sink_16] 1.6354166666666970e+01
flow[innode_6,sink_13] 2.6953626122738683e+00
flow[sink_13,sink_14] -13.6588040543928
flow[sink_14,sink_10] -3.0012970721059446e+01
flow[sink_25,sink_26] 0
flow[sink_26,sink_9] 5.3259976483572061e+01
flow[sink_9,sink_18] 3.6905809816905389e+01
flow[sink_26,sink_4] -6.9614143150238760e+01
flow[sink_4,sink_20] 0
flow[sink_18,sink_6] 2.0551643150238725e+01
flow[sink_25,innode_8] -1.2410175842824009e+02
flow[sink_6,sink_7] 0
flow[sink_6,sink_22] 4.1974764835720588e+00
flow[sink_7,sink_24] 4.95518198739367
flow[sink_22,sink_1] 0
flow[sink_24,sink_21] 0
flow[sink_21,sink_12] 0
flow[sink_7,sink_5] -2.1309348654060344e+01
flow[sink_5,sink_17] -3.7663515320727015e+01
flow[sink_17,sink_4] 8.5968309816905432e+01
flow[sink_17,sink_8] -1.3998599180429909e+02
flow[sink_3,sink_23] 16.3541666666697
flow[sink_8,sink_20] -1.5634015847096575e+02
flow[sink_25,sink_20] 1.7269432513763240e+02
flow[sink_25,sink_15] -67.6420959883327
flow[sink_15,sink_29] -4.8645404595557295e+01
flow[sink_29,sink_28] 1.6354166666667879e+01
flow[sink_29,sink_2] 5.1705024726108718e+01
flow[sink_2,sink_15] 3.5350858059442089e+01
flow[sink_29,innode_7] -1.3305876265500058e+02
flow[innode_4,sink_19] 4.3024457354655965e+01
flow[sink_19,innode_3] 3.8588495934494631e+01
flow[innode_4,innode_5] 6.8759346699736057e+01
flow[sink_27,innode_5] -6.8759346699736057e+01
flow[sink_27,sink_19] 5.2405180033069314e+01
flow[sink_10,sink_11] 3.2708333333333641e+01
flow[sink_10,innode_2] -4.0486974786565327e+01
flow[sink_10,innode_3] -3.8588495934494631e+01
flow[innode_6,sink_25] -2.6953626122738683e+00
flow[sink_11,innode_1] 1.6354166666666970e+01
flow[sink_19,innode_2] 4.0486974786565327e+01
flow[source_3,innode_4] 1.1178380405439204e+02
flow[source_2,innode_7] 1.3305876265500058e+02
flow[sink_3,innode_8] 1.2410175842824009e+02
pressure[innode_1] 7.6978614463864872e+01
pressure[innode_2] 7.9270219605620724e+01
pressure[innode_3] 7.9184769751046773e+01
pressure[innode_4] 81.01325
pressure[innode_5] 8.0965953695648338e+01
pressure[innode_6] 7.5701159889271437e+01
pressure[innode_7] 81.01325
pressure[innode_8] 8.0489093766867370e+01
pressure[source_1] 81.01325
pressure[source_2] 81.01325
pressure[source_3] 81.01325
pressure[sink_1] 1.0132500000000002e+00
pressure[sink_2] 7.6144702727110570e+01
pressure[sink_3] 8.0489093766867370e+01
pressure[sink_4] 1.5069189947371662e+01
pressure[sink_5] 1.5548955625148569e+01
pressure[sink_6] 1.1463683052466538e+00
pressure[sink_7] 6.6865641592774914e+00
pressure[sink_8] 23.6366504222747
pressure[sink_9] 3.0305205650475786e+00
pressure[sink_10] 7.7130315771468418e+01
pressure[sink_11] 7.6978614463864872e+01
pressure[sink_12] 1.01325
pressure[sink_13] 7.5686300805626914e+01
pressure[sink_14] 7.5710744398955072e+01
pressure[sink_15] 7.6029289966750113e+01
pressure[sink_16] 7.5956964629047192e+01
pressure[sink_17] 1.8354615276834664e+01
pressure[sink_18] 1.6951583676411106e+00
pressure[sink_19] 7.9270219605620724e+01
pressure[sink_20] 3.4531360813677750e+01
pressure[sink_21] 1.01325
pressure[sink_22] 1.0132500000000002e+00
pressure[sink_23] 8.0324375755207583e+01
pressure[sink_24] 1.01325
pressure[sink_25] 7.5701159889271437e+01
pressure[sink_26] 6.2182676178047567e+00
pressure[sink_27] 8.0395378171651913e+01
pressure[sink_28] 7.7159167082465387e+01
pressure[sink_29] 7.7454449356082563e+01
interdiction[source_1,sink_3] 0
interdiction[innode_1,sink_16] 0
interdiction[innode_6,sink_13] 0
interdiction[sink_13,sink_14] 0
interdiction[sink_14,sink_10] 0
interdiction[sink_25,sink_26] 1
interdiction[sink_26,sink_9] 0
interdiction[sink_9,sink_18] 0
interdiction[sink_26,sink_4] 0
interdiction[sink_4,sink_20] 1
interdiction[sink_18,sink_6] 0
interdiction[sink_25,innode_8] 0
interdiction[sink_6,sink_7] 1
interdiction[sink_6,sink_22] 0
interdiction[sink_7,sink_24] 0
interdiction[sink_22,sink_1] 0
interdiction[sink_24,sink_21] 0
interdiction[sink_21,sink_12] 0
interdiction[sink_7,sink_5] 0
interdiction[sink_5,sink_17] 0
interdiction[sink_17,sink_4] 0
interdiction[sink_17,sink_8] 0
interdiction[sink_3,sink_23] 0
interdiction[sink_8,sink_20] 0
interdiction[sink_25,sink_20] 0
interdiction[sink_25,sink_15] 0
interdiction[sink_15,sink_29] 0
interdiction[sink_29,sink_28] 0
interdiction[sink_29,sink_2] 0
interdiction[sink_2,sink_15] 0
interdiction[sink_29,innode_7] 0
interdiction[innode_4,sink_19] 0
interdiction[sink_19,innode_3] 0
interdiction[innode_4,innode_5] 0
interdiction[sink_27,innode_5] 0
interdiction[sink_27,sink_19] 0
interdiction[sink_10,sink_11] 0
interdiction[sink_10,innode_2] 0
interdiction[sink_10,innode_3] 0
interdiction[innode_6,sink_25] 0
interdiction[sink_11,innode_1] 0
interdiction[sink_19,innode_2] 0
interdiction[source_3,innode_4] 0
interdiction[source_2,innode_7] 0
interdiction[sink_3,innode_8] 0
WCcheckFlow[source_1,sink_3] 39
WCcheckFlow[innode_1,sink_16] 1
WCcheckFlow[innode_6,sink_13] 13
WCcheckFlow[sink_13,sink_14] 12
WCcheckFlow[sink_14,sink_10] 11
WCcheckFlow[sink_25,sink_26] 0
WCcheckFlow[sink_26,sink_9] 5
WCcheckFlow[sink_9,sink_18] 4
WCcheckFlow[sink_26,sink_4] -6
WCcheckFlow[sink_4,sink_20] 0
WCcheckFlow[sink_18,sink_6] 3
WCcheckFlow[sink_25,innode_8] -36
WCcheckFlow[sink_6,sink_7] 0
WCcheckFlow[sink_6,sink_22] 2
WCcheckFlow[sink_7,sink_24] 3
WCcheckFlow[sink_22,sink_1] 1
WCcheckFlow[sink_24,sink_21] 2
WCcheckFlow[sink_21,sink_12] 1
WCcheckFlow[sink_7,sink_5] -4
WCcheckFlow[sink_5,sink_17] -5
WCcheckFlow[sink_17,sink_4] 7
WCcheckFlow[sink_17,sink_8] -13
WCcheckFlow[sink_3,sink_23] 1
WCcheckFlow[sink_8,sink_20] -14
WCcheckFlow[sink_25,sink_20] 15
WCcheckFlow[sink_25,sink_15] 6
WCcheckFlow[sink_15,sink_29] 5
WCcheckFlow[sink_29,sink_28] 1
WCcheckFlow[sink_29,sink_2] 1
WCcheckFlow[sink_2,sink_15] 0
WCcheckFlow[sink_29,innode_7] 2
WCcheckFlow[innode_4,sink_19] -4
WCcheckFlow[sink_19,innode_3] -5
WCcheckFlow[innode_4,innode_5] 2
WCcheckFlow[sink_27,innode_5] -1
WCcheckFlow[sink_27,sink_19] 0
WCcheckFlow[sink_10,sink_11] 3
WCcheckFlow[sink_10,innode_2] 1
WCcheckFlow[sink_10,innode_3] 6
WCcheckFlow[innode_6,sink_25] -14
WCcheckFlow[sink_11,innode_1] 2
WCcheckFlow[sink_19,innode_2] 0
WCcheckFlow[source_3,innode_4] -1
WCcheckFlow[source_2,innode_7] -1
WCcheckFlow[sink_3,innode_8] 37
